NAME: tsp20_11
COMMENT: 20-tsp problem (Padberg/Rinaldi)
TYPE: TSP
DIMENSION: 20
EDGE_WEIGHT_TYPE : EUC_2D
NODE_COORD_SECTION
1 20 7
2 33 13
3 11 28
4 10 40
5 32 24
6 6 18
7 17 5
8 39 29
9 25 10
10 33 33
11 6 8
12 14 29
13 4 2
14 23 34
15 3 17
16 7 26
17 38 6
18 16 13
19 22 29
20 27 18
